(set-option :produce-models true)
(set-logic QF_UF)
(declare-fun p32() Bool)
(declare-fun p76() Bool)
(declare-fun p33() Bool)
(declare-fun p71() Bool)
(declare-fun p48() Bool)
(declare-fun p68() Bool)
(declare-fun p18() Bool)
(declare-fun p85() Bool)
(declare-fun p36() Bool)
(declare-fun p65() Bool)
(declare-fun p23() Bool)
(declare-fun p37() Bool)
(declare-fun p83() Bool)
(declare-fun p63() Bool)
(declare-fun p24() Bool)
(declare-fun p80() Bool)
(declare-fun p25() Bool)
(declare-fun p26() Bool)
(declare-fun p69() Bool)
(declare-fun p54() Bool)
(declare-fun p73() Bool)
(declare-fun p35() Bool)
(declare-fun p56() Bool)
(declare-fun p60() Bool)
(declare-fun p30() Bool)
(declare-fun p74() Bool)
(declare-fun p11() Bool)
(declare-fun p50() Bool)
(declare-fun p2() Bool)
(declare-fun p79() Bool)
(declare-fun p53() Bool)
(declare-fun p87() Bool)
(declare-fun p62() Bool)
(declare-fun p13() Bool)
(declare-fun p49() Bool)
(declare-fun p6() Bool)
(declare-fun p46() Bool)
(declare-fun p41() Bool)
(declare-fun p86() Bool)
(declare-fun p64() Bool)
(declare-fun p28() Bool)
(declare-fun p10() Bool)
(declare-fun p84() Bool)
(declare-fun p34() Bool)
(declare-fun p4() Bool)
(declare-fun p42() Bool)
(declare-fun p88() Bool)
(declare-fun p55() Bool)
(declare-fun p89() Bool)
(declare-fun p44() Bool)
(declare-fun p27() Bool)
(declare-fun p45() Bool)
(declare-fun p52() Bool)
(declare-fun p43() Bool)
(declare-fun p21() Bool)
(declare-fun p67() Bool)
(declare-fun p57() Bool)
(declare-fun p8() Bool)
(declare-fun p59() Bool)
(declare-fun p20() Bool)
(declare-fun p47() Bool)
(declare-fun p22() Bool)
(declare-fun p40() Bool)
(declare-fun p82() Bool)
(declare-fun p31() Bool)
(declare-fun p12() Bool)
(declare-fun p3() Bool)
(declare-fun p14() Bool)
(declare-fun p19() Bool)
(declare-fun p75() Bool)
(declare-fun p77() Bool)
(declare-fun p1() Bool)
(declare-fun p5() Bool)
(declare-fun p7() Bool)
(declare-fun p78() Bool)
(declare-fun p70() Bool)
(declare-fun p58() Bool)
(declare-fun p16() Bool)
(declare-fun p72() Bool)
(declare-fun p9() Bool)
(declare-fun p51() Bool)
(declare-fun p81() Bool)
(declare-fun p29() Bool)
(declare-fun p15() Bool)
(declare-fun p66() Bool)
(declare-fun p0() Bool)
(declare-fun p61() Bool)
(declare-fun p39() Bool)
(declare-fun p38() Bool)
(declare-fun p17() Bool)
(assert
(and (or (not p32) p76 (not p33)) (or p71 (not p48) p68) (or p18 (not p85) (not p36)) (or p65 p23 (not p37)) (or (not p83) p63 (not p24)) (or p80 (not p36) (not p48)) (or (not p83) (not p25) (not p32)) (or (not p26) p69 p54) (or p73 p35 p56) (or (not p60) p30 (not p83)) (or p74 p11 (not p50)) (or (not p2) p73 p68) (or (not p79) (not p53) p87) (or (not p62) (not p13) p63) (or p49 p6 (not p46)) (or (not p41) p69 p86) (or p24 (not p64) p74) (or (not p28) (not p85) (not p48)) (or (not p76) p46 (not p10)) (or p84 p34 p4) (or (not p35) p42 (not p25)) (or p50 p88 p69) (or p18 (not p24) p55) (or p79 p79 (not p89)) (or (not p34) (not p46) (not p87)) (or (not p44) p11 (not p27)) (or p45 p71 (not p52)) (or p69 p86 p87) (or (not p43) (not p32) (not p55)) (or (not p74) p73 p21) (or p89 (not p67) p42) (or p23 p57 p8) (or p59 (not p49) (not p80)) (or (not p20) p80 p47) (or p22 p62 p30) (or p40 p84 p89) (or (not p41) (not p82) p73) (or p89 (not p31) p46) (or (not p28) (not p12) (not p46)) (or (not p21) p4 p44) (or p3 p65 p28) (or p14 (not p34) p40) (or p82 (not p53) p87) (or p54 p19 p75) (or (not p82) p77 p84) (or (not p49) p48 p1) (or (not p5) (not p52) p79) (or p30 (not p77) p7) (or p25 (not p77) p19) (or (not p69) p78 p2) (or (not p4) p69 p60) (or (not p33) (not p84) p50) (or (not p80) (not p50) (not p87)) (or (not p50) (not p6) p50) (or p70 (not p46) p19) (or (not p88) (not p87) (not p6)) (or p5 (not p22) (not p58)) (or (not p18) (not p42) p65) (or (not p78) (not p65) (not p5)) (or (not p16) (not p7) (not p40)) (or p72 (not p37) p9) (or p54 (not p52) (not p88)) (or (not p87) p37 (not p51)) (or (not p77) (not p81) (not p77)) (or (not p74) (not p68) (not p30)) (or p29 p10 p60) (or p52 (not p48) p69) (or p80 p7 p15) (or p78 p43 (not p66)) (or p47 (not p50) (not p4)) (or (not p42) p21 (not p2)) (or (not p0) (not p34) p5) (or p56 p26 p43) (or p36 (not p41) (not p6)) (or (not p83) (not p16) p55) (or p12 p60 (not p58)) (or (not p89) (not p5) p61) (or (not p58) p55 (not p13)) (or p72 p89 (not p35)) (or (not p81) (not p72) (not p44)) (or p60 (not p2) (not p1)) (or p35 (not p35) p20) (or p65 p59 p59) (or p45 (not p8) p22) (or p66 p33 p64) (or p65 (not p74) p4) (or p47 p71 (not p3)) (or (not p37) p41 (not p80)) (or (not p52) p56 (not p8)) (or (not p9) p48 p56) (or (not p39) p34 (not p16)) (or (not p8) p39 (not p43)) (or p70 (not p4) p54) (or (not p1) p26 p66) (or (not p56) p60 p28) (or (not p31) p76 p12) (or (not p42) p38 (not p47)) (or p20 (not p67) (not p22)) (or p73 p5 (not p16)) (or (not p42) p11 p32) (or (not p15) (not p31) (not p13)) (or p24 (not p7) p53) (or p74 (not p61) p42) (or p61 p14 p3) (or (not p21) (not p37) (not p40)) (or (not p82) (not p83) p89) (or (not p9) (not p25) p51) (or p68 p81 (not p36)) (or (not p53) p66 (not p87)) (or p37 p56 p2) (or (not p13) (not p59) p5) (or (not p52) p75 (not p75)) (or (not p88) (not p88) (not p0)) (or (not p13) p32 (not p46)) (or p68 p30 (not p74)) (or p11 (not p39) (not p38)) (or p77 p50 p41) (or p75 p41 (not p13)) (or p74 p18 p71) (or (not p11) (not p65) p57) (or p31 (not p17) (not p69)) (or (not p28) (not p47) (not p22)) (or (not p48) (not p21) p58) (or (not p26) (not p14) (not p37)) (or p43 (not p8) (not p66)) (or p65 p85 (not p13)) (or p73 (not p82) p64) (or (not p67) p48 (not p50)) (or (not p56) p1 p35) (or (not p49) p34 p89) (or p5 (not p27) p73) (or (not p67) (not p74) p49) (or (not p6) p27 p63) (or (not p56) (not p55) (not p72)) (or (not p45) (not p22) (not p78)) (or (not p81) p89 p46) (or (not p3) (not p9) (not p21)) (or (not p5) (not p37) (not p0)) (or (not p45) (not p22) (not p51)) (or (not p3) (not p68) p23) (or p33 (not p46) (not p13)) (or (not p8) (not p83) p65) (or p41 (not p20) p39) (or (not p86) (not p8) (not p52)) (or p87 (not p34) p56) (or (not p51) p70 p30) (or p7 p76 (not p51)) (or (not p73) p13 (not p89)) (or (not p65) p23 (not p30)) (or p76 (not p20) (not p42)) (or p3 p68 (not p37)) (or p75 (not p18) (not p11)) (or p61 p71 p45) (or p44 (not p30) p32) (or p73 p89 (not p21)) (or p15 p87 p38) (or p44 (not p85) (not p46)) (or p63 (not p72) p38) (or p41 p6 (not p67)) (or (not p13) p53 (not p30)) (or p49 (not p18) (not p8)) (or (not p6) (not p37) (not p83)) (or (not p71) (not p28) p88) (or p52 p1 p79) (or (not p84) (not p23) p16) (or p67 (not p1) (not p81)) (or p2 p40 (not p4)) (or p61 p76 (not p62)) (or p64 p21 p63) (or (not p2) p54 p83) (or (not p46) p9 p89) (or (not p84) p60 p89) (or (not p15) p28 p19) (or p37 p77 (not p69)) (or p61 p23 (not p57)) (or (not p58) p15 p2) (or p33 p22 (not p78)) (or p9 p46 (not p6)) (or (not p47) (not p72) (not p67)) (or p19 p61 (not p46)) (or p71 p89 p7) (or p34 (not p27) (not p76)) (or (not p47) p9 (not p83)) (or (not p32) p57 (not p86)) (or p35 p79 (not p59)) (or p3 p89 p40) (or (not p74) (not p30) p70) (or p84 (not p55) (not p29)) (or p14 (not p42) p81) (or p66 (not p53) (not p45)) (or (not p89) p14 (not p10)) (or (not p76) p71 (not p0)) (or (not p47) p15 (not p85)) (or p46 (not p59) p25) (or (not p45) p56 (not p0)) (or p42 (not p61) (not p12)) (or p25 p2 (not p65)) (or p77 p12 p33) (or p62 p75 (not p83)) (or (not p59) p49 (not p1)) (or p67 p32 p30) (or p34 p51 (not p75)) (or (not p26) (not p40) (not p50)) (or (not p45) p49 (not p51)) (or p61 (not p10) p48) (or p88 (not p89) (not p65)) (or (not p2) (not p29) (not p57)) (or (not p19) (not p57) (not p43)) (or (not p0) p70 p47) (or p43 (not p52) (not p79)) (or (not p70) (not p77) (not p52)) (or p46 (not p80) p37) (or (not p19) (not p60) p69) (or (not p6) (not p49) (not p57)) (or (not p72) p25 p89) (or (not p28) p84 p69) (or (not p71) p71 p4) (or (not p15) p8 p82) (or p83 (not p20) p70) (or (not p76) p66 p33) (or p54 p70 p71) (or p13 (not p51) p79) (or p11 (not p6) p56) (or (not p27) (not p39) (not p22)) (or (not p66) p49 p29) (or p75 (not p39) p79) (or (not p36) (not p78) p44) (or p31 p57 p42) (or p19 p60 p47) (or p12 p71 p11) (or p24 (not p15) (not p54)) (or (not p23) p55 (not p78)) (or (not p11) (not p22) p80) (or p36 (not p40) (not p69)) (or (not p59) (not p37) p80) (or (not p10) p26 (not p61)) (or p34 (not p28) p84) (or p37 p9 (not p45)) (or p67 (not p38) p46) (or p25 p8 p55) (or (not p70) p45 (not p47)) (or p13 p15 p59) (or (not p38) p88 p73) (or p68 p69 p35) (or p88 p53 (not p89)) (or (not p68) (not p43) (not p8)) (or p85 (not p67) p46) (or p25 p82 (not p62)) (or (not p12) (not p13) p86) (or p58 (not p13) (not p26)) (or p58 (not p16) (not p40)) (or p51 (not p24) p89) (or (not p21) (not p87) (not p86)) (or p26 (not p82) (not p63)) (or p10 (not p17) p23) (or p20 (not p67) (not p64)) (or p43 (not p87) p16) (or (not p42) (not p43) p3) (or p54 p27 p13) (or p31 p2 (not p41)) (or p73 p52 (not p10)) (or p25 p27 (not p0)) (or p21 (not p65) p79) (or (not p5) (not p4) (not p13)) (or p80 (not p46) (not p6)) (or (not p87) (not p6) p26) (or p12 p16 p84) (or p77 p21 (not p5)) (or (not p64) (not p20) (not p0)) (or p5 p79 p20) (or p89 (not p84) p8) (or (not p71) (not p59) p39) (or (not p27) p45 (not p46)) (or p68 (not p24) p88) (or p25 (not p69) p80) (or p37 (not p49) p53) (or (not p34) (not p12) (not p84)) (or (not p6) (not p57) (not p43)) (or p8 (not p67) p79) (or (not p78) p63 (not p49)) (or (not p18) p18 p39) (or p59 (not p60) p12) (or (not p23) p81 (not p43)) (or p7 (not p76) (not p35)) (or p24 p21 (not p53)) (or p27 p86 p24) (or (not p73) p0 p76) (or (not p66) p45 p12) (or p69 (not p58) p27) (or (not p36) p86 p1) (or p69 p15 (not p20)) (or p2 (not p86) (not p63)) (or (not p3) p38 p9) (or (not p40) (not p67) (not p27)) (or p74 (not p18) (not p49)) (or (not p8) p84 p56) (or p78 (not p6) (not p2)) (or p76 (not p22) (not p33)) (or p54 p16 p20) (or p17 p56 p35) (or p16 p62 p7) (or (not p80) p77 p89) (or p73 p53 (not p64)) (or (not p50) p45 (not p55)) (or (not p56) (not p2) (not p39)) (or (not p36) (not p26) (not p38)) (or (not p57) (not p50) p28) (or p63 p25 (not p37)) (or (not p31) (not p26) p0) (or p28 p59 p42) (or (not p44) p61 p34) (or (not p78) (not p59) (not p59)) (or p46 (not p2) p18) (or p17 (not p79) (not p1)) (or (not p86) (not p37) (not p30)) (or p11 (not p8) (not p9)) (or (not p32) (not p58) p89) (or p22 (not p63) p65) (or (not p31) (not p15) (not p45)) (or (not p52) p59 p77) (or (not p17) p69 (not p36)) (or (not p28) p39 p87) (or (not p13) (not p50) (not p64)) (or (not p40) (not p8) p50) (or p52 p83 p66) (or p35 p7 (not p12)) (or p64 (not p23) (not p85)) (or (not p69) (not p85) (not p38)) (or p62 p85 p49) (or (not p19) (not p40) (not p66)) (or p7 (not p50) (not p25)) (or (not p62) (not p18) p40) (or p60 p60 p39) (or p86 p33 p25) (or (not p78) (not p82) (not p77)) (or (not p54) (not p27) (not p81)) (or (not p28) (not p89) p70) (or p82 p73 p63) (or (not p52) (not p24) (not p57)) (or p23 (not p38) (not p64)) (or (not p74) p49 (not p59)) (or p12 (not p22) (not p52)) (or (not p35) p18 p86) (or p70 p83 (not p16)) (or p56 p45 (not p9)) (or p44 p64 p24) (or p5 p61 (not p10)) (or p81 (not p7) p83) (or p74 (not p46) p48) (or (not p1) p1 p86) (or (not p72) p68 (not p12)) (or (not p85) (not p23) p54) (or p7 p53 (not p5)) (or p9 (not p65) (not p89)) (or (not p20) p58 p46) (or (not p22) (not p29) p4) (or p37 (not p57) (not p79)) (or p11 p79 (not p30)) (or (not p14) p28 p15) (or p2 (not p42) p89) (or p67 p2 (not p6)) (or p81 (not p53) p34) (or p32 (not p22) p63) (or p56 p17 p27) (or p34 (not p4) (not p32)) (or p69 (not p22) p69) (or p33 (not p86) p3) (or p52 (not p30) p13) (or p77 (not p2) (not p63)) (or p71 (not p60) (not p50)) (or (not p36) (not p22) p88) (or (not p81) (not p60) p81) (or (not p10) (not p53) (not p16)) (or p11 p24 p72) (or (not p84) p69 p3) (or (not p61) p57 (not p28)) (or (not p49) (not p50) p84) (or (not p60) p1 p31) (or p25 (not p4) p51) (or (not p3) p58 p24) (or (not p47) p5 (not p47)) (or (not p84) p27 (not p48)) (or (not p25) (not p62) p35) (or p56 (not p77) (not p55)) (or (not p39) (not p79) p17) (or p25 (not p78) p35) (or (not p30) p85 p47) (or p23 p77 p62) (or (not p30) (not p48) p47) (or (not p8) p58 p10) (or p35 (not p8) (not p26)) (or (not p50) (not p21) p46) (or p19 (not p62) (not p45)) (or p35 p9 p39) (or p4 p22 (not p83)) (or p22 (not p23) (not p63)) (or (not p23) p80 p73) (or (not p29) (not p74) (not p19)) (or (not p35) p21 p28) (or p3 p18 p24) (or (not p67) (not p34) (not p75)) (or (not p76) (not p38) p39) (or (not p33) (not p66) p69) (or (not p73) (not p88) (not p48)) (or (not p31) p14 p76) (or p54 (not p77) p44) (or (not p80) (not p64) (not p58)) (or (not p85) p33 (not p35)) (or (not p30) (not p74) p48) (or (not p11) (not p6) p1) (or (not p74) p78 (not p43)) (or p28 (not p75) p64) (or (not p79) p81 p75) (or p3 (not p72) p66) (or (not p88) p57 (not p20)) (or p17 p54 (not p62)) (or p22 (not p66) p74) (or (not p87) p43 (not p18)) (or (not p15) (not p75) p32) (or (not p60) (not p81) p70) (or (not p81) (not p56) (not p63)) (or (not p60) p72 p5) (or (not p67) (not p80) p28) (or (not p1) (not p34) (not p67)) (or p49 p61 p72) (or p61 p37 p65) (or p33 (not p6) p44) (or (not p50) (not p19) p8) (or p52 p46 (not p7)) (or p89 (not p71) (not p76)) (or (not p79) p9 p34) (or p77 p66 p6) (or (not p30) p73 p31) (or p8 (not p75) p44) (or (not p9) (not p6) p25) (or p34 (not p9) (not p64)) (or p61 p8 (not p63)) (or p9 p81 (not p3)) (or (not p60) (not p13) p63) (or (not p33) (not p45) (not p78)) (or p45 p19 p41) (or p60 p61 p58) (or p49 (not p57) p51) (or (not p6) p51 p53) (or p21 (not p73) p62) (or (not p58) (not p34) p16) (or p18 p54 p83) (or (not p9) (not p88) (not p87)))
)
(check-sat)
(get-model)
